%%% static parameters %%%
timespan = 1;
Fact = [4];
Distr1 = [15];
Distr2 = [30];
Clients_N = [1000];
Demand_W = [15];
Lt0 = [4];
Lt1 = [4];
SS_ = [0.85];
DS_D = [8];
K = [200];
MA = [500];
%%% dynamic parameters %%%
lost_ratio_sales_ret_th = 0.1624540796734243;
lost_ratio_sales_ret_w = 99;
lost_ratio_sales_dis_th = 0.3653637597895413;
lost_ratio_sales_dis_w = 34;
lost_ratio_sales_fac_th = 0.48912059075377823;
lost_ratio_sales_fac_w = 80;
stock_customer_MA_mean_relative_th = 0.70298490036753;
stock_customer_MA_mean_relative_w = 84;
stock_distributor_MA_mean_relative_th = 0.12302273913192319;
stock_distributor_MA_mean_relative_w = 60;
stock_retailer_MA_mean_relative_th = 0.7854646223618369;
stock_retailer_MA_mean_relative_w = 70;
stock_factory_MA_mean_relative_th = 0.9118117741840309;
stock_factory_MA_mean_relative_w = 79;
